(set-info :smt-lib-version 2.6)
(set-logic QF_UFLRA)
(set-info :source |
MathSat group

|)
(set-info :category "random")
(set-info :status sat)
(declare-fun x0 () Real)
(declare-fun x1 () Real)
(declare-fun x2 () Real)
(declare-fun x3 () Real)
(declare-fun x4 () Real)
(declare-fun x5 () Real)
(declare-fun x6 () Real)
(declare-fun x7 () Real)
(declare-fun x8 () Real)
(declare-fun x9 () Real)
(declare-fun x10 () Real)
(declare-fun x11 () Real)
(declare-fun x12 () Real)
(declare-fun x13 () Real)
(declare-fun x14 () Real)
(declare-fun x15 () Real)
(declare-fun x16 () Real)
(declare-fun x17 () Real)
(declare-fun x18 () Real)
(declare-fun x19 () Real)
(declare-fun x20 () Real)
(declare-fun x21 () Real)
(declare-fun x22 () Real)
(declare-fun x23 () Real)
(declare-fun x24 () Real)
(declare-fun x25 () Real)
(declare-fun x26 () Real)
(declare-fun x27 () Real)
(declare-fun x28 () Real)
(declare-fun x29 () Real)
(declare-fun x30 () Real)
(declare-fun x31 () Real)
(declare-fun x32 () Real)
(declare-fun x33 () Real)
(declare-fun x34 () Real)
(declare-fun x35 () Real)
(declare-fun x36 () Real)
(declare-fun x37 () Real)
(declare-fun x38 () Real)
(declare-fun x39 () Real)
(declare-fun f0_1 (Real) Real)
(declare-fun f0_2 (Real Real) Real)
(declare-fun f0_3 (Real Real Real) Real)
(declare-fun f0_4 (Real Real Real Real) Real)
(declare-fun P0 () Bool)
(declare-fun P1 () Bool)
(declare-fun P2 () Bool)
(declare-fun P3 () Bool)
(declare-fun P4 () Bool)
(declare-fun P5 () Bool)
(declare-fun P6 () Bool)
(declare-fun P7 () Bool)
(declare-fun P8 () Bool)
(declare-fun P9 () Bool)
(declare-fun P10 () Bool)
(declare-fun P11 () Bool)
(declare-fun P12 () Bool)
(declare-fun P13 () Bool)
(declare-fun P14 () Bool)
(declare-fun P15 () Bool)
(declare-fun P16 () Bool)
(declare-fun P17 () Bool)
(declare-fun P18 () Bool)
(declare-fun P19 () Bool)
(declare-fun P20 () Bool)
(declare-fun P21 () Bool)
(declare-fun P22 () Bool)
(declare-fun P23 () Bool)
(declare-fun P24 () Bool)
(declare-fun P25 () Bool)
(declare-fun P26 () Bool)
(declare-fun P27 () Bool)
(declare-fun P28 () Bool)
(declare-fun P29 () Bool)
(declare-fun P30 () Bool)
(declare-fun P31 () Bool)
(declare-fun P32 () Bool)
(declare-fun P33 () Bool)
(declare-fun P34 () Bool)
(declare-fun P35 () Bool)
(declare-fun P36 () Bool)
(declare-fun P37 () Bool)
(declare-fun P38 () Bool)
(declare-fun P39 () Bool)
(assert (let ((?v_56 (<= (+ (- (* 37 x27) (* 55 x14)) (* 32 x3)) 41)) (?v_196 (= (- (- (* 23 x39) (* 55 x34)) (* 51 x28)) 24)) (?v_45 (<= (- (- (* 34 x13) (* 22 x10)) (* 19 x17)) 56)) (?v_17 (< (- (+ (* 39 x15) (* 33 x18)) (* 47 x28)) 4)) (?v_182 (= (- (- (* 54 x15) (* 15 x15)) (* 5 x21)) 57)) (?v_125 (<= (- (+ (* 14 x7) (* 29 x33)) (* 31 x39)) 17)) (?v_60 (< (+ (- (* 36 x30) (* 8 x39)) (* 35 x27)) 22)) (?v_50 (<= (- (- (* 47 x21) (* 31 x30)) (* 35 x34)) 57)) (?v_95 (< (- (- (* 17 x11) (* 33 x20)) (* 10 x31)) 47)) (?v_91 (<= (+ (- (* 5 x24) (* 8 x23)) (* 16 x20)) 4)) (?v_138 (< (- (- (* 12 x37) (* 35 x6)) (* 23 x1)) 29)) (?v_33 (* 28 x20)) (?v_4 (f0_1 x10))) (let ((?v_21 (= ?v_4 x36)) (?v_55 (f0_1 x0))) (let ((?v_61 (distinct ?v_55 x6)) (?v_13 (f0_2 x22 x20))) (let ((?v_15 (= ?v_13 (f0_2 x31 x36))) (?v_154 (= x39 (f0_2 x3 x22))) (?v_104 (= (f0_1 x27) (f0_1 x1))) (?v_81 (= x28 x35)) (?v_51 (f0_1 x21))) (let ((?v_34 (distinct x19 ?v_51)) (?v_23 (distinct (f0_2 x25 x18) (f0_2 x11 x3))) (?v_74 (= (f0_1 x37) ?v_51)) (?v_112 (distinct (f0_1 x7) (f0_2 x24 x14))) (?v_39 (distinct x10 x18)) (?v_48 (distinct (f0_2 x28 x34) x6)) (?v_0 (distinct (f0_2 x37 x4) x23)) (?v_53 (distinct x13 x0)) (?v_96 (distinct x29 (f0_2 x39 x32))) (?v_63 (f0_1 x3))) (let ((?v_62 (distinct x29 ?v_63)) (?v_77 (distinct x6 x23)) (?v_1 (f0_1 x38))) (let ((?v_3 (distinct ?v_1 x30)) (?v_176 (distinct (f0_1 x12) (f0_2 x33 x25))) (?v_76 (f0_1 x23)) (?v_24 (f0_1 x19))) (let ((?v_29 (= ?v_76 ?v_24)) (?v_68 (distinct (f0_2 x32 x14) (f0_2 x23 x20))) (?v_26 (= (f0_2 x32 x34) (f0_2 x36 x4))) (?v_130 (= (f0_1 x20) (f0_2 x1 x5))) (?v_157 (= (f0_2 x3 x30) (f0_2 x36 x19))) (?v_8 (= (f0_1 x18) ?v_1)) (?v_36 (distinct ?v_24 x2)) (?v_11 (f0_1 x2))) (let ((?v_31 (distinct (f0_1 x13) ?v_11)) (?v_22 (distinct (f0_2 x6 x31) (f0_2 x30 x18))) (?v_140 (distinct ?v_76 ?v_51)) (?v_187 (= x23 (f0_2 x14 x11))) (?v_38 (distinct (f0_1 x4) x27)) (?v_107 (distinct ?v_13 (f0_2 x7 x39))) (?v_185 (= (f0_1 x39) ?v_11)) (?v_28 (= x21 x17)) (?v_100 (distinct (f0_2 x24 x37) (f0_1 x31))) (?v_80 (f0_1 x9))) (let ((?v_117 (distinct ?v_80 (f0_2 x23 x15))) (?v_18 (distinct ?v_55 (f0_1 x35))) (?v_143 (distinct x4 ?v_80)) (?v_69 (distinct ?v_63 x6)) (?v_115 (= ?v_24 ?v_4)) (?v_14 (not ?v_0)) (?v_20 (not ?v_125)) (?v_161 (not ?v_8)) (?v_49 (not ?v_22)) (?v_127 (not ?v_176)) (?v_118 (not P30))) (let ((?v_12 (not ?v_115)) (?v_206 (not ?v_100)) (?v_42 (not P38)) (?v_65 (not ?v_17)) (?v_19 (not P18)) (?v_9 (not ?v_107)) (?v_37 (not P7)) (?v_44 (not P22)) (?v_177 (not ?v_31)) (?v_86 (not P8)) (?v_98 (not ?v_185)) (?v_32 (not P11)) (?v_208 (not ?v_15)) (?v_41 (not P36)) (?v_35 (not ?v_157)) (?v_124 (not P27)) (?v_94 (not P4)) (?v_195 (not P16)) (?v_186 (not ?v_154)) (?v_57 (not ?v_23)) (?v_137 (not ?v_29)) (?v_27 (not P15)) (?v_102 (not ?v_28)) (?v_64 (not P20)) (?v_73 (not P3)) (?v_84 (not ?v_36)) (?v_58 (not P5)) (?v_122 (not ?v_34)) (?v_194 (not ?v_38)) (?v_174 (not P35)) (?v_54 (not ?v_39)) (?v_85 (not P37)) (?v_83 (not ?v_21)) (?v_120 (not P32)) (?v_192 (not P12)) (?v_78 (not ?v_95)) (?v_209 (not ?v_77)) (?v_92 (not P17)) (?v_191 (not P6)) (?v_103 (not ?v_48)) (?v_190 (not ?v_50)) (?v_72 (not ?v_53)) (?v_106 (not P13)) (?v_75 (not ?v_56)) (?v_97 (not P33)) (?v_142 (not P1)) (?v_173 (not ?v_62)) (?v_90 (not ?v_60)) (?v_204 (not ?v_74)) (?v_119 (not ?v_143)) (?v_136 (not P10)) (?v_166 (not ?v_81)) (?v_197 (not P21)) (?v_114 (not P24)) (?v_147 (not P2)) (?v_132 (not ?v_96)) (?v_169 (not P23)) (?v_163 (not ?v_61)) (?v_144 (not P25)) (?v_139 (not ?v_104)) (?v_203 (not P19)) (?v_153 (not P31)) (?v_121 (not ?v_45)) (?v_198 (not ?v_138)) (?v_181 (not P9)) (?v_155 (not ?v_68)) (?v_200 (not P39)) (?v_167 (not P26)) (?v_141 (not P0)) (?v_131 (not ?v_130)) (?v_205 (not ?v_196))) (let ((?v_202 (or ?v_54 ?v_14)) (?v_211 (not P34)) (?v_156 (not ?v_26)) (?v_171 (not ?v_91)) (?v_152 (not ?v_140)) (?v_165 (or ?v_104 ?v_26)) (?v_180 (not ?v_18)) (?v_188 (not P14)) (?v_189 (not ?v_69)) (?v_175 (not ?v_112)) (?v_184 (not P28)) (?v_193 (not ?v_187)) (?v_207 (not ?v_117)) (?v_210 (not P29)) (?v_46 (<= (+ (* 25 x12) (* 9 x36) (* 57 x34)) 50))) (let ((?v_79 (not ?v_46)) (?v_111 (< (- (+ (* 47 x35) x19) (* 44 x34)) 49))) (let ((?v_164 (not ?v_111)) (?v_16 (< (- (- (* 18 x24) (* 8 x12)) (* 4 x33)) (- 1)))) (let ((?v_6 (not ?v_16)) (?v_2 (<= (- (- (* (- 6) x9) (* 13 x8)) (* 42 x30)) (- 50))) (?v_59 (< (- (- (* (- 24) x8) (* 51 x29)) (* 12 x9)) (- 12)))) (let ((?v_30 (not ?v_2)) (?v_88 (= (+ (* (- 14) x9) (* 31 x35) (* 51 x14)) 1)) (?v_145 (< (+ (* 35 x30) (* 49 x18) (* 22 x11)) (- 6))) (?v_25 (< (- (- (* 43 x9) (* 20 x23)) (* 41 x9)) (- 14))) (?v_123 (distinct (- (+ (* (- 16) x13) (* 49 x30)) (* 46 x35)) (- 12)))) (let ((?v_7 (not ?v_123)) (?v_5 (<= (- (+ (* (- 44) x15) (* 46 x18)) ?v_33) 55)) (?v_70 (distinct (+ (- (* (- 32) x27) (* 52 x19)) (* 57 x30)) 59)) (?v_10 (distinct (+ (- (* 14 x27) (* 17 x13)) (* 5 x12)) (- 39)))) (let ((?v_159 (not ?v_5)) (?v_168 (< (+ (* (- 23) x5) (* 7 x2) (* 17 x39)) (- 31)))) (let ((?v_52 (not ?v_168)) (?v_47 (= (+ (* (- 41) x25) (* 18 x27) (* 30 x4)) 35))) (let ((?v_116 (not ?v_47)) (?v_135 (not ?v_10)) (?v_82 (< (+ (- (* 35 x8) (* 55 x25)) (* 40 x8)) (- 11))) (?v_66 (not ?v_25)) (?v_126 (< (- (+ (* (- 46) x39) (* 41 x28)) (* 24 x38)) (- 17)))) (let ((?v_101 (or ?v_126 P32)) (?v_108 (< (- (- (* (- 23) x6) ?v_33) (* 54 x12)) 45)) (?v_133 (distinct (+ (* (- 1) x17) (* 28 x36) (* 22 x13)) (- 7)))) (let ((?v_40 (not ?v_133)) (?v_162 (< (+ (* (- 45) x31) (* 30 x27) (* 27 x6)) (- 18)))) (let ((?v_87 (not ?v_162)) (?v_43 (<= (- (- (* (- 22) x24) (* 38 x10)) (* 6 x10)) (- 39)))) (let ((?v_67 (not ?v_43)) (?v_134 (<= (- (- (* (- 43) x6) (* 12 x5)) (* 43 x13)) 37))) (let ((?v_113 (not ?v_134)) (?v_99 (< (- (+ (* (- 8) x15) (* 19 x19)) (* 23 x37)) 51)) (?v_71 (not ?v_70)) (?v_149 (not ?v_59)) (?v_93 (= (+ (- (* 35 x14) (* 18 x34)) (* 2 x33)) (- 9))) (?v_172 (< (+ (- (* (- 40) x35) 0) (* 23 x15)) 23)) (?v_170 (<= (- (+ (* (- 20) x2) (* 54 x33)) (* 7 x24)) 32))) (let ((?v_89 (not ?v_170)) (?v_109 (not ?v_88)) (?v_128 (< (- (+ (* 33 x15) (* 56 x20)) (* 50 x37)) (- 52)))) (let ((?v_129 (not ?v_128)) (?v_146 (< (- (+ (* (- 40) x22) (* 3 x35)) (* 53 x3)) (- 41)))) (let ((?v_105 (not ?v_146)) (?v_179 (< (+ (- (* (- 50) x16) (* 28 x9)) (* 54 x30)) (- 48)))) (let ((?v_199 (not ?v_179)) (?v_151 (not ?v_93)) (?v_183 (not ?v_108)) (?v_158 (< (- (- (* 16 x30) (* 16 x36)) (* 38 x20)) (- 56)))) (let ((?v_110 (not ?v_158)) (?v_148 (not ?v_82)) (?v_150 (not ?v_99)) (?v_160 (not ?v_126)) (?v_201 (not ?v_145)) (?v_178 (not ?v_172))) (and (and (and (and (and (and (and (and (and (and (and (and (and (and (and (and (and (and (and (and (and (and (and (and (and (and (and (and (and (and (and (and (and (and (and (and (and (and (and (and (and (and (and (and (and (and (and (and (and (and (and (and (and (and (and (and (and (and (and (and (and (and (and (and (and (and (and (and (and (and (and (and (and (and (and (and (and (and (and (and (and (and (and (and (and (and (and (and (and (and (and (and (and (and (and (and (and (and (and (and (and (and (and (and (and (and (and (and (and (and (and (and (and (and (and (and (and (and (and (and (and (and (and (and (and (and (and (and (and (and (and (and (and (and (and (and (and (and (and (and (and (and (and (and (and (and (and (and (and (and (and (and (and (and (and (and (and (and (and (and (and (and (and (and (and (and (and (and (and (and (and (and (and (and (and (and (and (and (and (and (and (and (and (and (and (and (and (and (and (and (and (and (and (and (and (and (and (and (and (and (and (and (and (and (and (and (and (and (and (and (and (and (and (and (and (and (and (and (and (and (and (and (and (and (and (and (and (and (and (and (and (and (and (and (and (and (and (and (and (and (and (and (and (and (and (and (and (and (and (and (and (and (and (and (and (and (and (and (and (and (and (and (and (and (and (and (and (and (and (and (and (and (and (and (and (and (and (and (and (and (and (and (and (and (and (and (and (and (and (and (and (and (and (and (and (and (and (and (and (and (and (and (and (and (and (and (and (and (and (and (and (and (and (and (and (and (and (and (and (and (and (and (and (and (and (and (and (and (and (and (and (and (and (and (and (and (and (and (and (and (and (and (and (and (and (and (and (and (and (and (and (and (and (and (and (and (and (and (and (and (and (and (and (and (and (and (and (and (and (and (and (and (and (and (and (and (and (and (and (and (and (and (and (and (and (and (and (and (and (and (and (and (and (and (and (and (and (and (and (and (and (and (and (and (and (and (and (and (and (and (and (and (and (and (and (and (and (and (and (and (and (and (and (and (and (and (and (and (and (and (and (and (and (and (and (and (and (and (and (and (and (and (and (and (and (and (and (and (and (and (and (and (and (and (and (and (and (and (and (and (and (and (and (and (and (and (and (and (and (and (and (and (and (and (and (and (and (and (and (or (or ?v_0 ?v_14) ?v_6) (or (or ?v_20 ?v_3) P21)) (or (or ?v_62 ?v_2) ?v_161)) (or (or ?v_59 ?v_30) ?v_49)) (or (or P21 ?v_88) ?v_187)) (or (or P32 ?v_145) ?v_3)) (or (or P30 ?v_21) ?v_25)) (or (or ?v_96 ?v_127) ?v_118)) (or (or ?v_7 ?v_53) (not ?v_3))) (or (or ?v_5 ?v_23) ?v_12)) (or (or ?v_70 ?v_10) ?v_206)) (or (or ?v_42 P5) ?v_28)) (or (or ?v_159 ?v_60) ?v_65)) (or (or ?v_6 ?v_19) ?v_7)) (or (or ?v_52 ?v_9) ?v_8)) (or (or ?v_45 ?v_81) P22)) (or (or P27 ?v_26) ?v_8)) (or (or ?v_37 ?v_34) ?v_116)) (or (or ?v_7 ?v_44) ?v_177)) (or (or ?v_86 ?v_3) ?v_18)) (or (or ?v_9 ?v_135) ?v_38)) (or (or ?v_98 ?v_32) ?v_82)) (or (or ?v_12 ?v_91) ?v_15)) (or (or ?v_14 ?v_9) ?v_208)) (or (or ?v_7 ?v_16) P0)) (or (or ?v_41 ?v_17) ?v_18)) (or (or ?v_19 ?v_20) ?v_35)) (or (or ?v_124 ?v_94) ?v_46)) (or (or ?v_39 ?v_2) ?v_21)) (or (or ?v_195 ?v_22) ?v_186)) (or (or ?v_57 ?v_137) P27)) (or (or ?v_27 ?v_66) ?v_26)) (or (or ?v_27 ?v_102) ?v_3)) (or (or P2 P11) ?v_22)) (or (or ?v_29 ?v_64) ?v_30)) (or (or P9 P30) ?v_31)) (or (or ?v_56 ?v_73) ?v_84)) (or (or ?v_32 ?v_68) P0)) (or ?v_101 ?v_58)) (or (or ?v_108 P27) ?v_40)) (or (or ?v_122 ?v_35) ?v_19)) (or (or ?v_36 ?v_37) ?v_194)) (or (or ?v_28 ?v_174) P0)) (or (or ?v_34 ?v_87) ?v_54)) (or (or ?v_85 ?v_83) ?v_3)) (or (or ?v_50 ?v_120) P30)) (or (or ?v_67 ?v_40) ?v_35)) (or (or ?v_41 ?v_192) ?v_78)) (or (or ?v_209 ?v_92) ?v_191)) (or (or P5 ?v_42) P6)) (or (or ?v_43 ?v_103) P14)) (or (or ?v_19 ?v_44) ?v_45)) (or (or ?v_79 ?v_16) ?v_47)) (or (or ?v_112 ?v_19) ?v_48)) (or (or ?v_49 ?v_190) ?v_74)) (or (or ?v_47 ?v_52) ?v_104)) (or (or ?v_17 ?v_72) ?v_106)) (or (or ?v_113 ?v_54) P26)) (or (or ?v_61 ?v_75) ?v_97)) (or (or ?v_57 ?v_58) ?v_59)) (or (or ?v_60 ?v_32) ?v_61)) (or (or P26 ?v_62) ?v_142)) (or (or ?v_99 ?v_43) ?v_69)) (or (or P2 ?v_64) ?v_65)) (or (or ?v_8 ?v_66) ?v_67)) (or (or ?v_68 P19) P7)) (or (or P36 ?v_69) ?v_173)) (or (or ?v_49 ?v_90) ?v_71)) (or (or ?v_0 P13) ?v_71)) (or (or ?v_64 ?v_72) ?v_12)) (or (or ?v_73 ?v_204) ?v_149)) (or (or ?v_38 ?v_75) ?v_53)) (or (or ?v_140 ?v_54) P29)) (or (or P20 ?v_119) ?v_62)) (or (or ?v_77 ?v_21) ?v_16)) (or (or ?v_78 ?v_79) ?v_59)) (or (or ?v_117 ?v_9) ?v_81)) (or (or ?v_47 ?v_16) ?v_136)) (or (or P22 ?v_68) ?v_93)) (or (or P11 ?v_82) ?v_166)) (or (or ?v_83 P37) P1)) (or (or ?v_39 P3) ?v_84)) (or (or ?v_172 ?v_68) P26)) (or (or ?v_197 ?v_58) ?v_3)) (or (or ?v_85 P23) ?v_39)) (or (or ?v_89 ?v_27) ?v_111)) (or (or ?v_86 P11) ?v_37)) (or (or ?v_44 ?v_114) ?v_87)) (or (or ?v_109 ?v_84) P19)) (or (or ?v_28 ?v_89) ?v_90)) (or (or ?v_91 ?v_92) ?v_93)) (or (or ?v_44 ?v_94) ?v_68)) (or (or ?v_147 ?v_95) ?v_132)) (or (or ?v_56 ?v_56) ?v_95)) (or (or ?v_85 ?v_0) ?v_97)) (or (or ?v_17 ?v_98) ?v_99)) (or (or ?v_100 P36) P15)) (or (or ?v_65 P8) ?v_129)) (or ?v_101 ?v_57)) (or (or ?v_21 ?v_105) ?v_28)) (or (or ?v_102 ?v_16) ?v_130)) (or (or ?v_84 P24) ?v_90)) (or (or ?v_103 ?v_59) ?v_169)) (or (or ?v_163 ?v_104) ?v_27)) (or (or ?v_144 ?v_53) ?v_21)) (or (or P3 ?v_105) ?v_106)) (or (or ?v_16 ?v_87) ?v_34)) (or (or ?v_12 P18) ?v_199)) (or (or ?v_42 ?v_60) P21)) (or (or P39 ?v_107) ?v_34)) (or (or ?v_151 ?v_20) ?v_96)) (or (or P8 ?v_139) P39)) (or (or ?v_93 ?v_183) ?v_68)) (or (or ?v_89 P10) ?v_109)) (or (or ?v_90 ?v_110) ?v_43)) (or (or ?v_148 ?v_203) ?v_56)) (or (or ?v_84 ?v_110) ?v_89)) (or (or ?v_164 ?v_112) ?v_98)) (or (or ?v_3 ?v_113) ?v_26)) (or (or ?v_102 P29) P26)) (or (or ?v_153 ?v_107) ?v_114)) (or (or ?v_85 ?v_26) ?v_46)) (or (or ?v_67 ?v_70) ?v_115)) (or (or ?v_73 ?v_50) ?v_60)) (or (or ?v_59 ?v_78) ?v_121)) (or (or ?v_116 ?v_198) ?v_32)) (or (or ?v_92 ?v_70) P13)) (or (or ?v_181 P5) ?v_117)) (or (or P38 ?v_75) P37)) (or (or ?v_73 P12) ?v_118)) (or (or ?v_119 ?v_100) ?v_71)) (or (or ?v_120 ?v_182) ?v_38)) (or (or ?v_12 ?v_88) ?v_150)) (or (or ?v_155 ?v_20) ?v_121)) (or (or ?v_114 ?v_200) ?v_109)) (or (or ?v_104 ?v_122) P14)) (or (or ?v_123 ?v_124) ?v_125)) (or (or ?v_167 ?v_17) P8)) (or (or ?v_41 P38) P25)) (or (or P14 P39) ?v_54)) (or (or ?v_126 ?v_104) ?v_127)) (or (or ?v_107 ?v_102) ?v_128)) (or (or ?v_106 ?v_48) P25)) (or (or ?v_73 P38) ?v_58)) (or (or ?v_47 P7) ?v_16)) (or (or ?v_141 ?v_129) ?v_131)) (or (or ?v_160 ?v_87) P18)) (or (or ?v_18 ?v_131) ?v_205)) (or (or ?v_45 ?v_91) ?v_67)) (or (or ?v_132 ?v_133) ?v_134)) (or (or P25 ?v_135) ?v_64)) (or (or ?v_136 ?v_0) ?v_71)) (or ?v_202 P4)) (or (or ?v_137 ?v_138) ?v_211)) (or (or ?v_102 ?v_56) ?v_27)) (or (or P10 ?v_40) P37)) (or (or ?v_156 ?v_139) ?v_103)) (or (or ?v_120 ?v_171) ?v_152)) (or (or ?v_118 ?v_131) ?v_141)) (or (or ?v_72 ?v_142) ?v_40)) (or (or ?v_143 ?v_67) ?v_27)) (or (or ?v_10 ?v_61) ?v_42)) (or (or ?v_21 ?v_68) P19)) (or (or ?v_87 ?v_54) ?v_53)) (or (or ?v_15 P31) ?v_81)) (or (or ?v_144 ?v_139) P32)) (or (or ?v_66 ?v_201) ?v_81)) (or ?v_165 ?v_146)) (or (or ?v_119 ?v_88) ?v_126)) (or (or ?v_147 ?v_102) ?v_105)) (or (or ?v_25 ?v_148) ?v_149)) (or (or ?v_150 P5) ?v_151)) (or (or ?v_83 ?v_152) P20)) (or (or P24 ?v_15) P25)) (or (or ?v_69 P19) ?v_56)) (or (or ?v_29 ?v_65) ?v_153)) (or (or ?v_110 ?v_133) ?v_95)) (or (or ?v_180 ?v_90) ?v_154)) (or (or P28 ?v_71) ?v_28)) (or (or P30 ?v_155) ?v_135)) (or (or ?v_93 ?v_8) ?v_111)) (or (or P12 ?v_147) ?v_113)) (or (or ?v_188 ?v_156) ?v_68)) (or (or ?v_157 ?v_156) ?v_90)) (or (or ?v_158 P7) ?v_19)) (or (or ?v_151 ?v_34) ?v_124)) (or (or ?v_18 P4) ?v_3)) (or (or ?v_189 ?v_73) ?v_22)) (or (or ?v_65 ?v_159) ?v_41)) (or (or ?v_120 ?v_53) P25)) (or (or ?v_160 ?v_119) ?v_106)) (or (or ?v_19 ?v_93) ?v_175)) (or (or P2 ?v_0) P16)) (or (or ?v_115 ?v_161) ?v_9)) (or (or ?v_162 P2) ?v_163)) (or (or ?v_164 ?v_158) ?v_116)) (or ?v_165 ?v_46)) (or (or ?v_30 ?v_99) ?v_132)) (or (or ?v_144 ?v_97) ?v_166)) (or (or ?v_167 P13) ?v_52)) (or (or ?v_35 ?v_90) ?v_54)) (or (or ?v_0 ?v_168) ?v_42)) (or (or P11 ?v_9) ?v_18)) (or (or ?v_60 P23) ?v_84)) (or (or ?v_22 ?v_83) ?v_169)) (or (or ?v_112 ?v_29) ?v_88)) (or (or ?v_150 ?v_45) ?v_19)) (or (or ?v_139 ?v_73) P14)) (or (or ?v_141 ?v_160) P28)) (or (or P12 ?v_44) ?v_170)) (or (or ?v_22 ?v_151) ?v_79)) (or (or ?v_110 ?v_14) ?v_171)) (or (or ?v_140 P25) P32)) (or (or P10 P33) ?v_19)) (or (or ?v_178 P8) ?v_148)) (or (or ?v_9 ?v_120) P21)) (or (or ?v_127 P16) ?v_73)) (or (or ?v_139 P1) ?v_48)) (or (or ?v_52 ?v_64) P39)) (or (or ?v_102 ?v_48) P16)) (or (or P39 ?v_184) P11)) (or (or ?v_109 P14) ?v_22)) (or (or P19 ?v_173) ?v_174)) (or (or ?v_53 ?v_134) ?v_175)) (or (or P7 ?v_176) ?v_177)) (or (or ?v_143 P35) ?v_130)) (or (or ?v_83 ?v_86) ?v_82)) (or (or ?v_73 ?v_178) ?v_176)) (or (or ?v_99 ?v_74) P4)) (or (or ?v_179 ?v_10) ?v_127)) (or (or ?v_180 P22) P34)) (or (or ?v_109 ?v_181) ?v_126)) (or (or ?v_182 ?v_86) ?v_23)) (or (or ?v_183 P36) P16)) (or (or ?v_65 ?v_5) ?v_136)) (or (or ?v_78 ?v_143) ?v_128)) (or (or ?v_184 ?v_84) P6)) (or (or ?v_137 ?v_185) ?v_41)) (or (or P2 ?v_66) ?v_175)) (or (or ?v_100 P5) ?v_122)) (or (or ?v_170 ?v_106) P36)) (or (or P8 ?v_88) ?v_186)) (or (or ?v_7 ?v_114) ?v_103)) (or (or ?v_7 ?v_187) ?v_150)) (or (or ?v_193 ?v_124) ?v_136)) (or (or P5 ?v_94) ?v_188)) (or (or ?v_138 ?v_189) ?v_5)) (or (or ?v_14 ?v_3) ?v_10)) (or (or ?v_20 ?v_30) ?v_112)) (or (or ?v_103 ?v_62) ?v_130)) (or (or ?v_190 ?v_167) ?v_100)) (or (or ?v_59 ?v_95) ?v_16)) (or (or P10 ?v_207) ?v_191)) (or (or P24 ?v_137) ?v_144)) (or (or ?v_106 ?v_192) ?v_73)) (or (or ?v_87 ?v_138) ?v_15)) (or (or P32 P18) ?v_9)) (or (or P19 ?v_52) ?v_74)) (or (or ?v_84 ?v_193) P29)) (or (or ?v_14 P9) ?v_103)) (or (or ?v_142 ?v_96) P0)) (or (or ?v_89 ?v_5) ?v_77)) (or (or ?v_193 ?v_153) ?v_137)) (or (or ?v_194 ?v_26) ?v_192)) (or (or ?v_45 ?v_122) ?v_53)) (or (or ?v_189 ?v_48) P14)) (or (or ?v_64 ?v_171) ?v_141)) (or (or ?v_91 ?v_177) ?v_109)) (or (or ?v_195 P29) P26)) (or (or ?v_191 ?v_153) ?v_148)) (or (or P29 ?v_125) P7)) (or (or ?v_196 ?v_155) ?v_14)) (or (or ?v_64 ?v_197) ?v_169)) (or (or ?v_191 ?v_104) ?v_192)) (or (or ?v_98 ?v_120) ?v_117)) (or (or ?v_57 ?v_163) ?v_193)) (or (or ?v_18 ?v_6) ?v_129)) (or (or P32 ?v_28) ?v_48)) (or (or P39 ?v_3) ?v_188)) (or (or P38 ?v_65) ?v_161)) (or (or ?v_157 ?v_54) ?v_60)) (or (or ?v_180 ?v_210) P16)) (or (or ?v_136 ?v_97) ?v_39)) (or (or ?v_152 ?v_183) P25)) (or (or ?v_81 P37) ?v_115)) (or (or ?v_73 ?v_121) ?v_12)) (or (or ?v_31 P7) ?v_198)) (or (or ?v_90 ?v_82) ?v_86)) (or (or ?v_199 ?v_181) ?v_134)) (or (or ?v_118 ?v_126) ?v_145)) (or (or P26 ?v_54) ?v_9)) (or (or ?v_160 P29) ?v_58)) (or (or ?v_10 ?v_94) ?v_127)) (or (or ?v_199 P26) ?v_139)) (or (or ?v_90 ?v_200) ?v_201)) (or (or ?v_105 ?v_93) P9)) (or (or ?v_201 ?v_120) ?v_27)) (or ?v_202 ?v_196)) (or (or P1 ?v_116) ?v_114)) (or (or ?v_203 ?v_23) ?v_117)) (or (or ?v_204 ?v_120) ?v_173)) (or (or ?v_3 ?v_73) ?v_201)) (or (or ?v_108 ?v_43) P30)) (or (or ?v_81 ?v_138) ?v_143)) (or (or ?v_184 ?v_189) ?v_158)) (or (or ?v_60 ?v_70) ?v_39)) (or (or P11 ?v_10) ?v_62)) (or (or ?v_132 ?v_156) ?v_30)) (or (or ?v_119 ?v_168) ?v_124)) (or (or ?v_50 ?v_119) ?v_67)) (or (or P38 ?v_94) ?v_140)) (or (or P23 ?v_99) P20)) (or (or P38 ?v_104) ?v_201)) (or (or ?v_27 P11) P24)) (or (or ?v_94 ?v_149) P23)) (or (or ?v_186 ?v_106) ?v_46)) (or (or ?v_83 ?v_151) ?v_38)) (or (or ?v_20 ?v_38) ?v_124)) (or (or ?v_30 ?v_194) ?v_72)) (or (or ?v_187 ?v_113) ?v_136)) (or (or ?v_131 ?v_205) ?v_178)) (or (or ?v_127 P2) P19)) (or (or ?v_42 ?v_149) ?v_57)) (or (or ?v_106 ?v_194) P27)) (or (or ?v_113 ?v_181) P27)) (or (or P21 ?v_158) P11)) (or (or ?v_113 P3) ?v_167)) (or (or ?v_57 ?v_103) ?v_192)) (or (or P14 ?v_162) P0)) (or (or P23 ?v_129) P4)) (or (or P39 P21) ?v_5)) (or (or ?v_103 ?v_58) P7)) (or (or ?v_50 ?v_151) P32)) (or (or ?v_206 P23) P7)) (or (or P30 ?v_192) P3)) (or (or ?v_133 ?v_155) P9)) (or (or ?v_111 ?v_162) ?v_160)) (or (or ?v_110 ?v_154) ?v_151)) (or (or ?v_193 ?v_112) ?v_35)) (or (or ?v_135 ?v_125) P37)) (or (or ?v_207 ?v_188) ?v_145)) (or (or ?v_173 ?v_205) ?v_90)) (or (or ?v_62 ?v_112) P12)) (or (or ?v_109 ?v_198) ?v_159)) (or (or ?v_103 ?v_65) ?v_132)) (or (or ?v_146 P16) ?v_143)) (or (or ?v_187 ?v_60) ?v_27)) (or (or P9 ?v_208) ?v_48)) (or (or P22 ?v_87) P29)) (or (or ?v_36 ?v_78) ?v_7)) (or (or ?v_150 ?v_188) P19)) (or (or P17 P27) ?v_119)) (or (or ?v_170 ?v_18) ?v_39)) (or (or ?v_78 ?v_124) ?v_15)) (or (or ?v_48 ?v_132) ?v_98)) (or (or (not ?v_182) ?v_192) ?v_109)) (or (or ?v_34 ?v_29) ?v_195)) (or (or ?v_122 ?v_89) ?v_104)) (or (or P16 ?v_10) ?v_68)) (or (or ?v_29 ?v_142) ?v_195)) (or (or ?v_194 ?v_191) ?v_160)) (or (or ?v_106 P1) ?v_131)) (or (or ?v_140 P14) ?v_70)) (or (or ?v_65 P29) ?v_199)) (or (or ?v_158 ?v_95) ?v_162)) (or (or P36 ?v_205) ?v_108)) (or (or P29 ?v_200) ?v_138)) (or (or ?v_104 ?v_185) ?v_194)) (or (or P12 ?v_111) ?v_85)) (or (or ?v_18 ?v_205) ?v_179)) (or (or ?v_57 ?v_186) ?v_54)) (or (or ?v_182 ?v_150) ?v_200)) (or (or ?v_187 ?v_67) ?v_31)) (or (or ?v_163 ?v_46) ?v_88)) (or (or ?v_189 ?v_172) P32)) (or (or ?v_10 ?v_86) ?v_12)) (or (or ?v_107 ?v_99) P9)) (or (or ?v_79 ?v_158) P18)) (or (or ?v_209 ?v_137) ?v_107)) (or (or ?v_113 P19) ?v_152)) (or (or ?v_160 P1) ?v_143)) (or (or ?v_206 ?v_45) ?v_92)) (or (or ?v_109 ?v_203) P16)) (or (or ?v_100 ?v_3) ?v_185)) (or (or ?v_155 ?v_144) ?v_175)) (or (or ?v_190 ?v_151) P26)) (or (or ?v_31 ?v_145) ?v_37)) (or (or ?v_95 ?v_197) ?v_84)) (or (or ?v_100 ?v_6) ?v_83)) (or (or ?v_53 ?v_147) ?v_125)) (or (or ?v_35 ?v_204) ?v_136)) (or (or P37 P21) ?v_90)) (or (or ?v_141 ?v_201) ?v_142)) (or (or ?v_120 ?v_111) ?v_134)) (or (or ?v_182 ?v_186) ?v_67)) (or (or ?v_151 ?v_107) ?v_15)) (or (or ?v_181 ?v_183) ?v_114)) (or (or ?v_77 ?v_138) P22)) (or (or ?v_0 ?v_19) ?v_150)) (or (or ?v_126 ?v_173) ?v_121)) (or (or ?v_17 ?v_204) P14)) (or (or ?v_59 ?v_20) ?v_18)) (or (or P1 ?v_34) ?v_196)) (or (or ?v_135 ?v_135) ?v_86)) (or (or P28 ?v_52) ?v_2)) (or (or P1 ?v_40) ?v_209)) (or (or ?v_138 P23) ?v_187)) (or (or ?v_93 ?v_163) ?v_161)) (or (or ?v_170 ?v_54) ?v_32)) (or (or P26 ?v_20) ?v_83)) (or (or ?v_120 ?v_32) ?v_25)) (or (or P37 ?v_87) ?v_128)) (or (or ?v_205 ?v_96) ?v_135)) (or (or ?v_62 P36) ?v_120)) (or (or ?v_8 ?v_35) ?v_71)) (or (or ?v_157 ?v_48) ?v_113)) (or (or P17 ?v_135) ?v_127)) (or (or ?v_188 ?v_57) ?v_189)) (or (or ?v_64 ?v_164) ?v_197)) (or (or ?v_71 ?v_26) ?v_148)) (or (or ?v_104 ?v_34) ?v_71)) (or (or ?v_135 P4) ?v_177)) (or (or ?v_16 ?v_35) ?v_53)) (or (or P12 ?v_150) P38)) (or (or ?v_57 ?v_87) ?v_177)) (or (or ?v_207 ?v_173) ?v_197)) (or (or ?v_31 ?v_115) ?v_156)) (or (or ?v_114 P5) ?v_160)) (or (or P9 ?v_117) P16)) (or (or ?v_150 ?v_128) ?v_8)) (or (or ?v_105 ?v_90) ?v_197)) (or (or ?v_204 P5) ?v_114)) (or (or ?v_21 ?v_185) ?v_27)) (or (or ?v_193 ?v_92) ?v_83)) (or (or ?v_95 ?v_118) ?v_190)) (or (or ?v_58 P15) ?v_35)) (or (or P4 ?v_201) P14)) (or (or ?v_5 P2) P0)) (or (or P37 ?v_137) P24)) (or (or ?v_18 P33) ?v_186)) (or (or ?v_93 ?v_146) ?v_6)) (or (or ?v_115 ?v_58) ?v_139)) (or (or ?v_34 ?v_123) ?v_44)) (or (or P9 P15) P7)) (or (or ?v_43 ?v_164) ?v_131)) (or (or ?v_3 ?v_134) ?v_7)) (or (or ?v_56 ?v_157) P32)) (or (or P21 ?v_210) ?v_206)) (or (or ?v_143 ?v_32) ?v_37)) (or (or ?v_118 ?v_192) ?v_209)) (or (or ?v_54 ?v_211) ?v_43)) (or (or P30 P4) P37)) (or (or ?v_170 ?v_22) ?v_188)) (or (or ?v_142 ?v_62) ?v_189)) (or (or ?v_85 ?v_209) P14)) (or (or ?v_196 ?v_29) ?v_146)) (or (or ?v_156 ?v_136) P34)) (or (or ?v_190 P20) ?v_122)) (or (or ?v_25 ?v_65) ?v_95)) (or (or ?v_30 P30) ?v_78)) (or (or P2 ?v_206) ?v_21)) (or (or ?v_14 ?v_198) ?v_131)) (or (or ?v_85 ?v_7) ?v_197)) (or (or ?v_75 ?v_67) ?v_41)) (or (or ?v_143 ?v_206) P29)) (or (or ?v_56 ?v_5) ?v_89)) (or (or P32 ?v_90) ?v_125)) (or (or ?v_147 P4) ?v_148)) (or (or ?v_208 ?v_88) P13)) (or (or ?v_168 ?v_128) ?v_159)) (or (or P36 ?v_72) ?v_145)) (or (or ?v_196 ?v_77) ?v_124)) (or (or ?v_36 ?v_143) ?v_79)) (or (or ?v_94 ?v_115) P25)) (or (or ?v_125 ?v_78) ?v_19)) (or (or ?v_28 ?v_210) ?v_75)) (or (or P19 ?v_87) ?v_25)) (or (or ?v_122 ?v_114) ?v_171)) (or (or ?v_29 ?v_77) ?v_48)) (or (or ?v_163 ?v_137) ?v_8)))))))))))))))))))))))))))))))))
(check-sat)
(exit)
